networks/zoo_138_1877/zoo_138_1877-lower.txt
Number of groups: 66
Flow 1: {1 2 0} {2 71 0} 
Flow 2: {1 4 0} {4 3 0} {3 72 0} 
Flow 3: {4 73 0} 
Flow 4: {4 6 0} {6 5 0} {5 74 0} 
Flow 5: {6 75 0} 
Flow 6: {2 7 0} {7 76 0} 
Flow 7: {7 52 0} {52 8 0} {8 77 0} 
Flow 8: {2 63 0} {63 9 0} {9 78 0} 
Flow 9: {6 11 0} {11 80 0} 
Flow 10: {11 12 0} {12 81 0} 
Flow 11: {2 33 0} {33 13 0} {13 82 0} 
Flow 12: {13 14 0} {14 83 0} 
Flow 13: {57 31 0} {31 15 0} {15 84 0} 
Flow 13: {63 44 0} {44 57 0} Flow 14: {13 16 0} {16 85 0} 
Flow 15: {4 23 0} {23 17 0} {17 86 0} 
Flow 16: {17 18 0} {18 87 0} 
Flow 17: {1 24 0} {24 19 0} {19 88 0} 
Flow 18: {19 20 0} {20 89 0} 
Flow 19: {19 21 0} {21 90 0} 
Flow 20: {23 22 0} {22 91 0} 
Flow 21: {23 92 0} 
Flow 22: {24 93 0} 
Flow 23: {23 25 0} {25 94 0} 
Flow 24: {25 26 0} {26 95 0} 
Flow 25: {4 62 0} {62 27 0} {27 96 0} 
Flow 26: {62 28 0} {28 97 0} 
Flow 27: {33 29 0} {29 98 0} 
Flow 28: {13 30 0} {30 99 0} 
Flow 29: {31 100 0} 
Flow 30: {16 43 0} {43 45 0} {45 32 0} {32 101 0} 
Flow 31: {33 102 0} 
Flow 32: {14 41 0} {41 34 0} {34 103 0} 
Flow 33: {63 35 0} {35 104 0} 
Flow 34: {35 36 0} {36 105 0} 
Flow 35: {9 37 0} {37 106 0} 
Flow 36: {9 38 0} {38 107 0} 
Flow 37: {26 39 0} {39 108 0} 
Flow 38: {17 40 0} {40 109 0} 
Flow 39: {41 110 0} 
Flow 40: {64 42 0} {42 111 0} 
Flow 40: {63 64 0} Flow 41: {43 112 0} 
Flow 42: {44 113 0} 
Flow 43: {45 114 0} 
Flow 44: {4 46 0} {46 115 0} 
Flow 45: {4 47 0} {47 116 0} 
Flow 46: {47 48 0} {48 117 0} 
Flow 47: {2 49 0} {49 118 0} 
Flow 48: {1 50 0} {50 119 0} 
Flow 49: {50 51 0} {51 120 0} 
Flow 50: {52 121 0} 
Flow 51: {1 55 0} {55 53 0} {53 122 0} 
Flow 52: {55 54 0} {54 123 0} 
Flow 53: {55 124 0} 
Flow 54: {55 56 0} {56 125 0} 
Flow 55: {1 69 0} {69 68 0} {68 67 0} {67 58 0} {58 127 0} 
Flow 56: {2 59 0} {59 128 0} 
Flow 57: {68 60 0} {60 129 0} 
Flow 58: {3 61 0} {61 130 0} 
Flow 59: {62 131 0} 
Flow 60: {63 132 0} 
Flow 61: {64 133 0} 
Flow 62: {64 65 0} {65 134 0} 
Flow 63: {67 136 0} 
Flow 64: {68 137 0} 
Flow 65: {69 138 0} 
Flow 66: {2 1 0} {1 70 0} 
Flow 67: {2 4 0} Flow 114: {49 51 0} Flow 120: {65 58 0} Flow 131: {3 4 0} {4 1 0} Flow 132: {4 2 0} Flow 135: {62 13 0} Flow 150: {5 8 0} Flow 160: {47 19 0} Flow 177: {28 36 0} Flow 178: {28 37 0} Flow 183: {62 64 0} Flow 200: {61 60 0} Flow 209: {5 6 0} {6 4 0} Flow 256: {8 52 0} Flow 257: {6 55 0} Flow 268: {7 2 0} Flow 295: {8 5 0} Flow 296: {52 7 0} Flow 308: {9 63 0} {63 2 0} Flow 313: {9 30 0} {30 13 0} Flow 314: {30 14 0} Flow 316: {63 62 0} {62 17 0} Flow 318: {22 21 0} {62 23 0} Flow 321: {18 26 0} Flow 322: {13 33 0} Flow 326: {37 28 0} Flow 346: {10 9 0} Flow 348: {10 27 0} {27 62 0} {62 4 0} Flow 354: {23 24 0} Flow 361: {11 6 0} Flow 376: {12 11 0} Flow 380: {33 2 0} Flow 382: {13 62 0} Flow 388: {30 9 0} Flow 406: {14 44 0} Flow 432: {62 63 0} Flow 435: {58 67 0} Flow 437: {14 13 0} Flow 440: {14 30 0} Flow 455: {44 63 0} Flow 456: {15 31 0} {31 57 0} {57 44 0} Flow 460: {57 43 0} {43 16 0} {16 13 0} Flow 461: {44 14 0} Flow 503: {43 57 0} Flow 513: {16 44 0} Flow 535: {17 62 0} Flow 544: {17 23 0} Flow 573: {18 17 0} Flow 586: {19 24 0} {24 1 0} Flow 587: {19 47 0} {47 4 0} Flow 596: {24 23 0} Flow 598: {21 22 0} Flow 619: {48 54 0} Flow 630: {21 19 0} Flow 633: {22 23 0} {23 62 0} Flow 658: {23 4 0} Flow 720: {40 42 0} Flow 788: {25 23 0} Flow 803: {26 25 0} Flow 806: {26 18 0} Flow 814: {27 10 0} Flow 816: {27 30 0} Flow 848: {28 62 0} Flow 851: {37 9 0} Flow 870: {29 33 0} Flow 973: {32 15 0} Flow 975: {32 45 0} {45 43 0} Flow 1025: {35 63 0} Flow 1029: {44 16 0} Flow 1037: {36 28 0} Flow 1038: {36 35 0} Flow 1058: {38 9 0} Flow 1073: {39 26 0} Flow 1077: {40 17 0} Flow 1102: {41 14 0} Flow 1117: {42 64 0} {64 62 0} Flow 1118: {64 63 0} Flow 1124: {42 40 0} Flow 1176: {30 27 0} Flow 1234: {46 4 0} Flow 1324: {48 47 0} Flow 1344: {49 2 0} Flow 1383: {51 50 0} Flow 1399: {50 1 0} Flow 1424: {51 49 0} Flow 1438: {51 11 0} Flow 1489: {53 55 0} {55 1 0} Flow 1504: {54 55 0} Flow 1506: {54 48 0} Flow 1540: {56 55 0} Flow 1561: {67 68 0} {68 69 0} {69 1 0} Flow 1562: {58 65 0} {65 64 0} Flow 1576: {59 2 0} Flow 1629: {60 68 0} Flow 1631: {60 61 0} {61 3 0} Flow 1824: {66 9 0} Time taken running everything: 0 seconds
