networks/zoo_138_1877/zoo_138_1877-lower.sol
<?xml version = "1.0" encoding="UTF-8" standalone="yes"?>
<CPLEXSolution version="1.2">
 <header
   problemName="networks/zoo_138_1877/zoo_138_1877-lower.lp"
   solutionName="incumbent"
   solutionIndex="-1"
   objectiveValue="80"
   solutionTypeValue="3"
   solutionTypeString="primal"
   solutionStatusValue="101"
   solutionStatusString="integer optimal solution"
   solutionMethodString="mip"
   primalFeasible="1"
   dualFeasible="1"
   MIPNodes="0"
   MIPIterations="15"
   writeLevel="3"/>
 <quality
   epInt="1.0000000000000001e-05"
   epRHS="9.9999999999999995e-07"
   maxIntInfeas="0"
   maxPrimalInfeas="0"
   maxX="1"
   maxSlack="1"/>
 <variables>
  <variable name="Y(13,15)" index="1634" value="1"/>
  <variable name="Y(32,34)" index="4218" value="1"/>
  <variable name="Y(37,39)" index="4898" value="1"/>
  <variable name="Y(53,55)" index="7074" value="1"/>
  <variable name="Y(65,69)" index="8708" value="1"/>
  <variable name="Y(98,35)" index="13129" value="1"/>
  <variable name="Y(116,53)" index="15577" value="1"/>
  <variable name="Y(152,11)" index="20395" value="1"/>
  <variable name="Y(153,12)" index="20531" value="1"/>
  <variable name="Y(189,48)" index="25427" value="1"/>
  <variable name="Y(200,60)" index="26924" value="1"/>
  <variable name="Y(201,61)" index="27060" value="1"/>
  <variable name="Y(228,5)" index="30649" value="1"/>
  <variable name="Y(256,52)" index="34476" value="1"/>
  <variable name="Y(295,1)" index="39690" value="1"/>
  <variable name="Y(352,17)" index="47401" value="1"/>
  <variable name="Y(376,12)" index="50636" value="1"/>
  <variable name="Y(403,28)" index="54297" value="1"/>
  <variable name="Y(451,47)" index="60796" value="1"/>
  <variable name="Y(492,20)" index="66304" value="1"/>
  <variable name="Y(503,31)" index="67800" value="1"/>
  <variable name="Y(513,44)" index="69163" value="1"/>
  <variable name="Y(514,45)" index="69299" value="1"/>
  <variable name="Y(548,26)" index="73870" value="1"/>
  <variable name="Y(598,22)" index="80616" value="1"/>
  <variable name="Y(617,51)" index="83210" value="1"/>
  <variable name="Y(651,48)" index="87797" value="1"/>
  <variable name="Y(656,64)" index="88488" value="1"/>
  <variable name="Y(706,25)" index="95199" value="1"/>
  <variable name="Y(767,42)" index="103451" value="1"/>
  <variable name="Y(808,17)" index="108961" value="1"/>
  <variable name="Y(814,9)" index="109763" value="1"/>
  <variable name="Y(816,14)" index="110038" value="1"/>
  <variable name="Y(851,37)" index="114786" value="1"/>
  <variable name="Y(908,65)" index="122509" value="1"/>
  <variable name="Y(928,44)" index="125188" value="1"/>
  <variable name="Y(931,36)" index="125585" value="1"/>
  <variable name="Y(983,30)" index="132599" value="1"/>
  <variable name="Y(987,63)" index="133172" value="1"/>
  <variable name="Y(1010,46)" index="136260" value="1"/>
  <variable name="Y(1012,49)" index="136533" value="1"/>
  <variable name="Y(1041,23)" index="140422" value="1"/>
  <variable name="Y(1042,35)" index="140569" value="1"/>
  <variable name="Y(1071,62)" index="144511" value="1"/>
  <variable name="Y(1074,2)" index="144856" value="1"/>
  <variable name="Y(1085,19)" index="146358" value="1"/>
  <variable name="Y(1107,16)" index="149325" value="1"/>
  <variable name="Y(1133,59)" index="152878" value="1"/>
  <variable name="Y(1176,30)" index="158654" value="1"/>
  <variable name="Y(1239,6)" index="167135" value="1"/>
  <variable name="Y(1383,50)" index="186619" value="1"/>
  <variable name="Y(1428,58)" index="192702" value="1"/>
  <variable name="Y(1430,68)" index="192982" value="1"/>
  <variable name="Y(1440,7)" index="194271" value="1"/>
  <variable name="Y(1455,35)" index="196324" value="1"/>
  <variable name="Y(1464,54)" index="197558" value="1"/>
  <variable name="Y(1485,33)" index="200372" value="1"/>
  <variable name="Y(1493,1)" index="201420" value="1"/>
  <variable name="Y(1504,54)" index="202958" value="1"/>
  <variable name="Y(1514,47)" index="204301" value="1"/>
  <variable name="Y(1540,56)" index="207820" value="1"/>
  <variable name="Y(1552,57)" index="209441" value="1"/>
  <variable name="Y(1570,29)" index="211843" value="1"/>
  <variable name="Y(1583,8)" index="213577" value="1"/>
  <variable name="Y(1596,27)" index="215351" value="1"/>
  <variable name="Y(1601,32)" index="216031" value="1"/>
  <variable name="Y(1627,67)" index="219576" value="1"/>
  <variable name="Y(1631,4)" index="220053" value="1"/>
  <variable name="Y(1634,24)" index="220478" value="1"/>
  <variable name="Y(1654,3)" index="223157" value="1"/>
  <variable name="Y(1668,18)" index="225062" value="1"/>
  <variable name="Y(1671,21)" index="225470" value="1"/>
  <variable name="Y(1688,38)" index="227782" value="1"/>
  <variable name="Y(1746,37)" index="235611" value="1"/>
  <variable name="Y(1749,41)" index="236020" value="1"/>
  <variable name="Y(1751,43)" index="236292" value="1"/>
  <variable name="Y(1763,56)" index="237925" value="1"/>
  <variable name="Y(1794,40)" index="242094" value="1"/>
  <variable name="Y(1812,68)" index="244552" value="1"/>
  <variable name="Y(1826,13)" index="246387" value="1"/>
  <variable name="X(1,2,1493)" index="254887" value="1"/>
  <variable name="X(1,4,37)" index="255308" value="1"/>
  <variable name="X(1,24,1634)" index="258782" value="1"/>
  <variable name="X(1,50,617)" index="259642" value="1"/>
  <variable name="X(1,55,1763)" index="262665" value="1"/>
  <variable name="X(1,69,1430)" index="264209" value="1"/>
  <variable name="X(1,70,295)" index="264951" value="1"/>
  <variable name="X(2,1,1763)" index="268296" value="1"/>
  <variable name="X(2,4,1596)" index="270006" value="1"/>
  <variable name="X(2,7,1440)" index="271727" value="1"/>
  <variable name="X(2,33,1485)" index="273649" value="1"/>
  <variable name="X(2,49,1012)" index="275053" value="1"/>
  <variable name="X(2,59,1133)" index="277051" value="1"/>
  <variable name="X(2,63,908)" index="278703" value="1"/>
  <variable name="X(2,71,1074)" index="280746" value="1"/>
  <variable name="X(3,4,1631)" index="283180" value="1"/>
  <variable name="X(3,61,200)" index="283626" value="1"/>
  <variable name="X(3,72,1654)" index="286957" value="1"/>
  <variable name="X(4,1,295)" index="287475" value="1"/>
  <variable name="X(4,2,1074)" index="290131" value="1"/>
  <variable name="X(4,3,1654)" index="292588" value="1"/>
  <variable name="X(4,6,1239)" index="294050" value="1"/>
  <variable name="X(4,23,37)" index="294725" value="1"/>
  <variable name="X(4,46,1010)" index="297575" value="1"/>
  <variable name="X(4,47,451)" index="298893" value="1"/>
  <variable name="X(4,62,1596)" index="301915" value="1"/>
  <variable name="X(4,73,1631)" index="303827" value="1"/>
  <variable name="X(5,6,295)" index="304368" value="1"/>
  <variable name="X(5,8,256)" index="306206" value="1"/>
  <variable name="X(5,74,228)" index="308055" value="1"/>
  <variable name="X(6,4,295)" index="309999" value="1"/>
  <variable name="X(6,5,256)" index="311837" value="1"/>
  <variable name="X(6,11,153)" index="313611" value="1"/>
  <variable name="X(6,55,1464)" index="316799" value="1"/>
  <variable name="X(6,75,1239)" index="318451" value="1"/>
  <variable name="X(7,2,1485)" index="320574" value="1"/>
  <variable name="X(7,52,1583)" index="322549" value="1"/>
  <variable name="X(7,76,1440)" index="324283" value="1"/>
  <variable name="X(8,5,295)" index="325015" value="1"/>
  <variable name="X(8,52,256)" index="326853" value="1"/>
  <variable name="X(8,77,1583)" index="330057" value="1"/>
  <variable name="X(9,30,1826)" index="332177" value="1"/>
  <variable name="X(9,37,931)" index="333159" value="1"/>
  <variable name="X(9,38,1688)" index="335793" value="1"/>
  <variable name="X(9,63,1071)" index="337053" value="1"/>
  <variable name="X(9,78,814)" index="338673" value="1"/>
  <variable name="X(10,9,814)" index="340550" value="1"/>
  <variable name="X(10,27,352)" index="341965" value="1"/>
  <variable name="X(11,6,1464)" index="344954" value="1"/>
  <variable name="X(11,12,153)" index="345520" value="1"/>
  <variable name="X(11,80,152)" index="347396" value="1"/>
  <variable name="X(12,11,376)" index="349497" value="1"/>
  <variable name="X(12,81,153)" index="351151" value="1"/>
  <variable name="X(13,14,32)" index="352907" value="1"/>
  <variable name="X(13,16,1107)" index="355859" value="1"/>
  <variable name="X(13,30,983)" index="357612" value="1"/>
  <variable name="X(13,33,1570)" index="360076" value="1"/>
  <variable name="X(13,62,403)" index="360786" value="1"/>
  <variable name="X(13,82,1826)" index="364086" value="1"/>
  <variable name="X(14,13,1107)" index="365244" value="1"/>
  <variable name="X(14,30,1176)" index="367190" value="1"/>
  <variable name="X(14,41,32)" index="367923" value="1"/>
  <variable name="X(14,44,928)" index="370696" value="1"/>
  <variable name="X(14,83,816)" index="372461" value="1"/>
  <variable name="X(15,31,987)" index="374509" value="1"/>
  <variable name="X(15,84,13)" index="375412" value="1"/>
  <variable name="X(16,13,983)" index="378259" value="1"/>
  <variable name="X(16,43,1751)" index="380904" value="1"/>
  <variable name="X(16,44,513)" index="381543" value="1"/>
  <variable name="X(16,85,1107)" index="384014" value="1"/>
  <variable name="X(17,18,1668)" index="386452" value="1"/>
  <variable name="X(17,23,1085)" index="387746" value="1"/>
  <variable name="X(17,40,767)" index="389305" value="1"/>
  <variable name="X(17,62,808)" index="391223" value="1"/>
  <variable name="X(17,86,352)" index="392644" value="1"/>
  <variable name="X(18,17,808)" index="394977" value="1"/>
  <variable name="X(18,26,548)" index="396594" value="1"/>
  <variable name="X(18,87,1668)" index="399591" value="1"/>
  <variable name="X(19,20,492)" index="400292" value="1"/>
  <variable name="X(19,21,598)" index="402275" value="1"/>
  <variable name="X(19,24,617)" index="404171" value="1"/>
  <variable name="X(19,47,651)" index="406082" value="1"/>
  <variable name="X(19,88,1085)" index="408393" value="1"/>
  <variable name="X(20,89,492)" index="409677" value="1"/>
  <variable name="X(21,19,651)" index="411713" value="1"/>
  <variable name="X(21,22,598)" index="413537" value="1"/>
  <variable name="X(21,90,1671)" index="416487" value="1"/>
  <variable name="X(22,21,1671)" index="418364" value="1"/>
  <variable name="X(22,23,656)" index="419226" value="1"/>
  <variable name="X(22,91,598)" index="421045" value="1"/>
  <variable name="X(23,4,1074)" index="423398" value="1"/>
  <variable name="X(23,17,767)" index="424968" value="1"/>
  <variable name="X(23,22,1671)" index="427749" value="1"/>
  <variable name="X(23,24,1085)" index="429040" value="1"/>
  <variable name="X(23,25,37)" index="429869" value="1"/>
  <variable name="X(23,62,656)" index="432365" value="1"/>
  <variable name="X(23,92,1041)" index="434627" value="1"/>
  <variable name="X(24,1,617)" index="436080" value="1"/>
  <variable name="X(24,19,1085)" index="438425" value="1"/>
  <variable name="X(24,23,767)" index="439984" value="1"/>
  <variable name="X(24,93,1634)" index="442728" value="1"/>
  <variable name="X(25,23,1074)" index="444045" value="1"/>
  <variable name="X(25,26,37)" index="444885" value="1"/>
  <variable name="X(25,94,706)" index="447431" value="1"/>
  <variable name="X(26,18,808)" index="449410" value="1"/>
  <variable name="X(26,25,1074)" index="451553" value="1"/>
  <variable name="X(26,39,37)" index="452393" value="1"/>
  <variable name="X(26,95,548)" index="454781" value="1"/>
  <variable name="X(27,10,814)" index="456924" value="1"/>
  <variable name="X(27,30,816)" index="458803" value="1"/>
  <variable name="X(27,62,352)" index="460216" value="1"/>
  <variable name="X(27,96,1596)" index="463337" value="1"/>
  <variable name="X(28,36,931)" index="464549" value="1"/>
  <variable name="X(28,37,851)" index="466346" value="1"/>
  <variable name="X(28,62,1041)" index="468413" value="1"/>
  <variable name="X(28,97,403)" index="469652" value="1"/>
  <variable name="X(29,33,908)" index="472034" value="1"/>
  <variable name="X(29,98,1570)" index="474573" value="1"/>
  <variable name="X(30,9,931)" index="475811" value="1"/>
  <variable name="X(30,13,1826)" index="478583" value="1"/>
  <variable name="X(30,14,816)" index="479450" value="1"/>
  <variable name="X(30,27,1176)" index="481687" value="1"/>
  <variable name="X(30,99,983)" index="483371" value="1"/>
  <variable name="X(31,15,13)" index="484278" value="1"/>
  <variable name="X(31,57,987)" index="487129" value="1"/>
  <variable name="X(31,100,503)" index="488522" value="1"/>
  <variable name="X(32,15,987)" index="490883" value="1"/>
  <variable name="X(32,45,983)" index="492756" value="1"/>
  <variable name="X(32,101,1601)" index="495251" value="1"/>
  <variable name="X(33,2,908)" index="496435" value="1"/>
  <variable name="X(33,13,32)" index="497436" value="1"/>
  <variable name="X(33,29,1570)" index="500851" value="1"/>
  <variable name="X(33,102,1485)" index="502643" value="1"/>
  <variable name="X(34,103,32)" index="503067" value="1"/>
  <variable name="X(35,36,1455)" index="506367" value="1"/>
  <variable name="X(35,63,1042)" index="507831" value="1"/>
  <variable name="X(35,104,98)" index="508764" value="1"/>
  <variable name="X(36,28,1041)" index="511584" value="1"/>
  <variable name="X(36,35,1042)" index="513462" value="1"/>
  <variable name="X(36,105,931)" index="515228" value="1"/>
  <variable name="X(37,9,851)" index="517025" value="1"/>
  <variable name="X(37,28,931)" index="518982" value="1"/>
  <variable name="X(37,106,1746)" index="521674" value="1"/>
  <variable name="X(38,9,1071)" index="522876" value="1"/>
  <variable name="X(38,107,1688)" index="525370" value="1"/>
  <variable name="X(39,26,1074)" index="526633" value="1"/>
  <variable name="X(39,108,37)" index="527473" value="1"/>
  <variable name="X(40,17,1085)" index="530398" value="1"/>
  <variable name="X(40,42,767)" index="531957" value="1"/>
  <variable name="X(40,109,1794)" index="534861" value="1"/>
  <variable name="X(41,14,1107)" index="536051" value="1"/>
  <variable name="X(41,34,32)" index="536853" value="1"/>
  <variable name="X(41,110,1749)" index="540447" value="1"/>
  <variable name="X(42,40,1794)" index="542369" value="1"/>
  <variable name="X(42,64,1133)" index="543585" value="1"/>
  <variable name="X(42,111,767)" index="545096" value="1"/>
  <variable name="X(43,16,983)" index="547189" value="1"/>
  <variable name="X(43,45,1601)" index="549684" value="1"/>
  <variable name="X(43,57,503)" index="550463" value="1"/>
  <variable name="X(43,112,1751)" index="553588" value="1"/>
  <variable name="X(44,14,1176)" index="554890" value="1"/>
  <variable name="X(44,16,1751)" index="557342" value="1"/>
  <variable name="X(44,57,928)" index="558396" value="1"/>
  <variable name="X(44,63,987)" index="560332" value="1"/>
  <variable name="X(44,113,513)" index="561735" value="1"/>
  <variable name="X(45,32,1601)" index="564700" value="1"/>
  <variable name="X(45,43,983)" index="565959" value="1"/>
  <variable name="X(45,114,514)" index="567367" value="1"/>
  <variable name="X(46,4,1239)" index="569969" value="1"/>
  <variable name="X(46,115,1010)" index="571617" value="1"/>
  <variable name="X(47,4,1514)" index="573998" value="1"/>
  <variable name="X(47,19,492)" index="574853" value="1"/>
  <variable name="X(47,48,651)" index="576889" value="1"/>
  <variable name="X(47,116,451)" index="578566" value="1"/>
  <variable name="X(48,47,1514)" index="581506" value="1"/>
  <variable name="X(48,54,651)" index="582520" value="1"/>
  <variable name="X(48,117,189)" index="583935" value="1"/>
  <variable name="X(49,2,1440)" index="587063" value="1"/>
  <variable name="X(49,51,1383)" index="588883" value="1"/>
  <variable name="X(49,118,1012)" index="590389" value="1"/>
  <variable name="X(50,1,1430)" index="592684" value="1"/>
  <variable name="X(50,51,617)" index="593748" value="1"/>
  <variable name="X(50,119,1383)" index="596391" value="1"/>
  <variable name="X(51,11,1464)" index="598349" value="1"/>
  <variable name="X(51,49,1440)" index="600202" value="1"/>
  <variable name="X(51,50,1383)" index="602022" value="1"/>
  <variable name="X(51,120,617)" index="603133" value="1"/>
  <variable name="X(52,7,1485)" index="605878" value="1"/>
  <variable name="X(52,8,1583)" index="607853" value="1"/>
  <variable name="X(52,121,256)" index="608403" value="1"/>
  <variable name="X(53,55,1493)" index="611517" value="1"/>
  <variable name="X(53,122,116)" index="612017" value="1"/>
  <variable name="X(54,48,1514)" index="615292" value="1"/>
  <variable name="X(54,55,1504)" index="617159" value="1"/>
  <variable name="X(54,123,1464)" index="618996" value="1"/>
  <variable name="X(55,1,1493)" index="620902" value="1"/>
  <variable name="X(55,53,116)" index="621402" value="1"/>
  <variable name="X(55,54,1464)" index="624627" value="1"/>
  <variable name="X(55,56,1763)" index="626803" value="1"/>
  <variable name="X(55,124,53)" index="626970" value="1"/>
  <variable name="X(56,55,1540)" index="630334" value="1"/>
  <variable name="X(56,125,1763)" index="632434" value="1"/>
  <variable name="X(57,31,503)" index="633051" value="1"/>
  <variable name="X(57,43,1552)" index="635977" value="1"/>
  <variable name="X(57,44,987)" index="637289" value="1"/>
  <variable name="X(58,65,1570)" index="639749" value="1"/>
  <variable name="X(58,67,1812)" index="641868" value="1"/>
  <variable name="X(58,127,1428)" index="643361" value="1"/>
  <variable name="X(59,2,1596)" index="645406" value="1"/>
  <variable name="X(59,128,1133)" index="646820" value="1"/>
  <variable name="X(60,61,1631)" index="649195" value="1"/>
  <variable name="X(60,68,1634)" index="651075" value="1"/>
  <variable name="X(60,129,200)" index="651518" value="1"/>
  <variable name="X(61,3,1631)" index="654826" value="1"/>
  <variable name="X(61,60,200)" index="655272" value="1"/>
  <variable name="X(61,130,201)" index="657150" value="1"/>
  <variable name="X(62,4,451)" index="659277" value="1"/>
  <variable name="X(62,13,1570)" index="662273" value="1"/>
  <variable name="X(62,17,352)" index="662932" value="1"/>
  <variable name="X(62,23,1041)" index="665498" value="1"/>
  <variable name="X(62,27,1596)" index="667930" value="1"/>
  <variable name="X(62,28,403)" index="668614" value="1"/>
  <variable name="X(62,63,1688)" index="671776" value="1"/>
  <variable name="X(62,64,656)" index="672621" value="1"/>
  <variable name="X(62,131,1071)" index="674913" value="1"/>
  <variable name="X(63,2,1133)" index="676852" value="1"/>
  <variable name="X(63,9,1688)" index="679284" value="1"/>
  <variable name="X(63,35,98)" index="679571" value="1"/>
  <variable name="X(63,44,1751)" index="683101" value="1"/>
  <variable name="X(63,62,1071)" index="684298" value="1"/>
  <variable name="X(63,64,908)" index="686012" value="1"/>
  <variable name="X(63,132,987)" index="687968" value="1"/>
  <variable name="X(64,42,1794)" index="690652" value="1"/>
  <variable name="X(64,62,1570)" index="692305" value="1"/>
  <variable name="X(64,63,1133)" index="693745" value="1"/>
  <variable name="X(64,65,908)" index="695397" value="1"/>
  <variable name="X(64,133,656)" index="697022" value="1"/>
  <variable name="X(65,58,1812)" index="700055" value="1"/>
  <variable name="X(65,64,1570)" index="701690" value="1"/>
  <variable name="X(65,134,908)" index="702905" value="1"/>
  <variable name="X(66,9,1826)" index="705700" value="1"/>
  <variable name="X(67,58,1428)" index="707179" value="1"/>
  <variable name="X(67,68,1812)" index="709440" value="1"/>
  <variable name="X(67,136,1627)" index="711132" value="1"/>
  <variable name="X(68,60,1430)" index="712812" value="1"/>
  <variable name="X(68,67,1627)" index="714886" value="1"/>
  <variable name="X(68,69,1634)" index="716770" value="1"/>
  <variable name="X(68,137,1812)" index="718825" value="1"/>
  <variable name="X(69,1,1634)" index="720524" value="1"/>
  <variable name="X(69,68,1430)" index="722197" value="1"/>
  <variable name="X(69,138,65)" index="722709" value="1"/>
 </variables>
</CPLEXSolution>
